language ESSENCE' 1.0

letting jobs = 102
letting horizon = 814
letting resourcesRenew = 2
letting resourcesNonrenew = 2
letting resourceLimits = [15, 18, 185, 162]
letting successors = [[2, 3, 4, 5, 6, 7, 8, 9, 10, 11, 13, 14, 16, 18, 19, 20, 23, 28, 31, 32], [48, 45, 30, 27, 15, 12], [51, 48, 45, 40, 37, 36, 35, 30, 25, 22, 17], [51, 45, 42, 39, 38, 37, 35, 33, 25, 21], [59, 53, 51, 48, 45, 44, 40, 38, 35, 33, 22], [59, 51, 49, 39, 38, 35, 33, 29, 26, 22], [59, 52, 44, 40, 39, 38, 35, 33, 30, 21], [45, 44, 41, 37, 35, 34, 30, 27, 22], [51, 49, 39, 38, 37, 36, 22, 21], [59, 52, 49, 44, 42, 39, 38, 34, 24, 21], [66, 53, 52, 51, 48, 44, 42, 40, 38, 35, 33], [64, 59, 49, 41, 39, 38, 35, 22], [69, 66, 65, 59, 54, 53, 50, 48, 47, 33, 30], [71, 60, 57, 52, 47, 44, 41, 40, 38, 29], [69, 66, 62, 57, 54, 52, 49, 42, 39, 37, 33], [75, 69, 66, 64, 52, 50, 49, 43, 41, 39, 30], [75, 71, 69, 66, 64, 63, 61, 60, 57, 56, 55, 52, 50, 49, 43, 39, 38], [75, 66, 61, 59, 57, 55, 49, 47, 45, 44, 43, 42, 39], [69, 66, 65, 60, 53, 52, 47, 42, 33], [71, 61, 60, 55, 52, 49, 39, 36], [100, 75, 71, 67, 66, 65, 63, 58, 56, 54, 53, 50, 48, 47, 41], [75, 69, 66, 61, 60, 57, 55, 52, 50, 47, 46, 43, 42], [75, 71, 66, 61, 57, 56, 53, 49, 45, 38], [101, 100, 75, 71, 67, 65, 60, 57, 56, 53, 46, 45, 41], [75, 71, 66, 65, 63, 59, 58, 57, 56, 52, 49, 47, 41], [75, 64, 54, 53, 47, 30], [100, 71, 69, 64, 59, 58, 57, 55, 54, 53, 51, 40], [64, 54, 49, 30], [101, 100, 99, 81, 69, 67, 66, 65, 64, 63, 62, 58, 56, 55, 54, 53], [101, 100, 99, 79, 67, 61, 60, 56, 55, 46, 42], [81, 71, 56, 53, 52, 38], [101, 100, 99, 97, 81, 79, 69, 67, 64, 58, 57, 56, 46], [101, 100, 75, 74, 71, 64, 63, 58, 56, 41], [100, 69, 67, 64, 54, 50, 47], [98, 97, 75, 69, 67, 62, 60, 58, 43], [100, 97, 81, 79, 75, 70, 69, 64, 63, 62, 57, 54], [98, 79, 75, 70, 67, 61, 60, 59, 56, 55], [101, 100, 99, 97, 78, 67, 65, 54, 46], [100, 99, 98, 95, 81, 79, 78, 76, 73, 72, 67, 65, 58, 53], [98, 97, 96, 94, 76, 75, 73, 62, 49], [99, 98, 94, 79, 77, 73, 70, 68, 61, 55], [98, 95, 94, 81, 77, 74, 71, 70, 68, 63], [100, 94, 81, 79, 74, 73, 70, 54], [98, 97, 95, 94, 86, 81, 73, 70, 56], [99, 95, 92, 91, 81, 80, 79, 77, 69, 64, 63], [98, 96, 95, 76, 73, 70, 68, 62], [99, 98, 94, 76, 73, 70, 68, 62], [99, 89, 78, 76, 72, 70, 57], [101, 99, 95, 90, 86, 81, 79, 77, 70, 68], [101, 99, 97, 94, 93, 89, 88, 87, 86, 81, 77, 73, 70], [93, 91, 86, 81, 78, 68, 67], [98, 95, 91, 89, 86, 80, 76, 72, 67], [97, 96, 94, 92, 91, 89, 88, 87, 84, 80, 77, 74], [95, 91, 90, 86, 80, 77, 76, 68], [96, 95, 92, 89, 88, 87, 86, 85, 80, 78, 76], [93, 91, 90, 85, 80, 76, 68], [94, 91, 90, 88, 87, 84, 80, 77, 74], [94, 93, 89, 88, 87, 86, 85, 70], [93, 92, 89, 88, 87, 86, 78, 73], [92, 90, 87, 80, 76, 74], [97, 93, 91, 89, 87, 86, 85, 76], [92, 91, 90, 85, 80, 74], [89, 88, 86, 82, 78, 76], [89, 88, 78, 73], [85, 84, 80, 74], [94, 78, 73], [96, 94, 87, 83, 77], [92, 89, 87, 72], [88, 76, 73], [92, 91, 83, 80], [89, 85, 84, 82], [88, 83, 82], [85, 83, 82], [93, 86, 83], [91, 90, 82], [84, 83], [85, 82], [90, 84], [87, 84], [82], [84], [102], [102], [102], [102], [102], [102], [102], [102], [102], [102], [102], [102], [102], [102], [102], [102], [102], [102], [102], [102], []]
letting durations = [[0], [2, 6, 9], [1, 6, 6], [3, 8, 9], [3, 4, 7], [3, 3, 10], [2, 5, 9], [4, 7, 9], [4, 7, 9], [1, 2, 9], [3, 3, 4], [3, 5, 9], [4, 5, 10], [5, 5, 7], [2, 4, 8], [4, 5, 7], [2, 6, 8], [2, 3, 10], [6, 7, 9], [2, 9, 10], [1, 5, 5], [2, 4, 8], [2, 3, 8], [4, 5, 8], [1, 4, 5], [1, 2, 8], [6, 8, 9], [6, 8, 9], [3, 4, 7], [3, 4, 5], [2, 4, 10], [2, 4, 6], [4, 8, 10], [2, 3, 10], [3, 4, 4], [5, 8, 9], [8, 9, 10], [3, 5, 10], [4, 8, 9], [2, 5, 7], [6, 8, 9], [7, 9, 9], [3, 4, 8], [6, 7, 9], [2, 9, 10], [6, 8, 10], [6, 8, 10], [3, 5, 9], [4, 5, 7], [3, 5, 9], [1, 2, 6], [4, 6, 7], [3, 9, 10], [1, 2, 4], [7, 10, 10], [5, 8, 9], [5, 6, 6], [1, 7, 10], [1, 3, 5], [7, 10, 10], [1, 6, 9], [1, 4, 9], [6, 6, 8], [1, 6, 6], [7, 8, 8], [3, 3, 4], [1, 3, 6], [1, 5, 7], [1, 6, 10], [1, 4, 4], [2, 9, 10], [6, 6, 8], [5, 8, 10], [4, 6, 10], [1, 2, 9], [5, 5, 6], [1, 4, 10], [3, 4, 6], [3, 4, 7], [2, 3, 4], [6, 6, 10], [3, 4, 10], [2, 8, 9], [1, 9, 10], [1, 5, 6], [1, 6, 9], [7, 8, 10], [5, 6, 10], [4, 6, 8], [2, 6, 8], [3, 4, 9], [1, 3, 7], [8, 8, 9], [3, 4, 7], [1, 3, 6], [4, 8, 8], [1, 6, 9], [8, 9, 10], [4, 8, 9], [2, 9, 10], [2, 4, 6], [0]]
letting resourceUsage = [[[0, 0, 0, 0]], [[0, 2, 0, 9], [0, 1, 0, 8], [2, 0, 0, 8]], [[0, 3, 0, 8], [0, 3, 2, 0], [4, 0, 0, 5]], [[0, 3, 10, 0], [1, 0, 0, 4], [1, 0, 5, 0]], [[0, 4, 4, 0], [2, 0, 2, 0], [1, 0, 0, 3]], [[4, 0, 9, 0], [0, 3, 0, 2], [1, 0, 7, 0]], [[0, 4, 0, 9], [0, 3, 3, 0], [0, 3, 0, 5]], [[0, 1, 0, 9], [0, 1, 0, 4], [0, 1, 3, 0]], [[0, 4, 3, 0], [0, 4, 2, 0], [0, 4, 1, 0]], [[0, 5, 9, 0], [1, 0, 0, 1], [0, 3, 0, 1]], [[5, 0, 3, 0], [0, 2, 0, 3], [0, 2, 1, 0]], [[5, 0, 0, 7], [0, 4, 0, 7], [0, 3, 5, 0]], [[0, 2, 8, 0], [3, 0, 0, 4], [3, 0, 8, 0]], [[4, 0, 0, 6], [0, 2, 7, 0], [0, 2, 0, 1]], [[2, 0, 0, 6], [1, 0, 0, 2], [0, 3, 0, 2]], [[5, 0, 7, 0], [5, 0, 0, 6], [0, 2, 2, 0]], [[0, 4, 7, 0], [0, 2, 5, 0], [0, 2, 4, 0]], [[4, 0, 5, 0], [0, 3, 4, 0], [0, 2, 3, 0]], [[2, 0, 5, 0], [0, 3, 0, 3], [0, 2, 0, 3]], [[3, 0, 0, 3], [2, 0, 4, 0], [0, 4, 0, 3]], [[4, 0, 8, 0], [2, 0, 7, 0], [0, 1, 5, 0]], [[0, 4, 5, 0], [3, 0, 0, 8], [3, 0, 0, 7]], [[0, 5, 9, 0], [0, 5, 0, 6], [3, 0, 0, 2]], [[3, 0, 6, 0], [2, 0, 4, 0], [1, 0, 4, 0]], [[0, 3, 0, 5], [0, 1, 6, 0], [0, 1, 0, 4]], [[3, 0, 9, 0], [3, 0, 0, 5], [3, 0, 0, 1]], [[1, 0, 8, 0], [1, 0, 7, 0], [1, 0, 0, 2]], [[3, 0, 0, 2], [3, 0, 0, 1], [2, 0, 0, 2]], [[3, 0, 0, 8], [2, 0, 5, 0], [1, 0, 0, 5]], [[4, 0, 7, 0], [2, 0, 7, 0], [2, 0, 6, 0]], [[0, 4, 0, 6], [0, 3, 0, 4], [0, 3, 0, 3]], [[0, 1, 10, 0], [1, 0, 0, 5], [1, 0, 1, 0]], [[5, 0, 0, 5], [4, 0, 3, 0], [0, 4, 1, 0]], [[4, 0, 9, 0], [0, 3, 0, 4], [0, 2, 9, 0]], [[0, 2, 8, 0], [5, 0, 8, 0], [0, 1, 5, 0]], [[4, 0, 0, 7], [3, 0, 6, 0], [1, 0, 0, 3]], [[0, 1, 0, 8], [3, 0, 0, 5], [2, 0, 3, 0]], [[2, 0, 0, 10], [1, 0, 0, 9], [0, 1, 0, 9]], [[0, 3, 5, 0], [0, 3, 4, 0], [0, 3, 3, 0]], [[4, 0, 0, 9], [0, 1, 3, 0], [2, 0, 0, 4]], [[0, 5, 6, 0], [3, 0, 5, 0], [2, 0, 3, 0]], [[5, 0, 6, 0], [0, 1, 6, 0], [4, 0, 0, 3]], [[0, 5, 2, 0], [0, 4, 1, 0], [0, 3, 0, 6]], [[2, 0, 10, 0], [2, 0, 0, 5], [0, 4, 0, 1]], [[5, 0, 0, 7], [0, 3, 0, 5], [5, 0, 0, 1]], [[0, 5, 3, 0], [0, 4, 3, 0], [1, 0, 1, 0]], [[0, 4, 0, 5], [0, 2, 3, 0], [1, 0, 2, 0]], [[2, 0, 5, 0], [2, 0, 0, 3], [2, 0, 3, 0]], [[1, 0, 9, 0], [0, 3, 0, 4], [1, 0, 0, 3]], [[4, 0, 5, 0], [0, 4, 3, 0], [0, 3, 0, 2]], [[5, 0, 0, 6], [5, 0, 0, 5], [0, 1, 0, 4]], [[1, 0, 0, 2], [0, 2, 5, 0], [0, 2, 4, 0]], [[0, 2, 0, 4], [1, 0, 4, 0], [1, 0, 0, 4]], [[0, 3, 0, 6], [0, 2, 0, 5], [2, 0, 0, 4]], [[0, 3, 0, 5], [5, 0, 4, 0], [5, 0, 0, 4]], [[1, 0, 0, 4], [0, 1, 0, 3], [0, 1, 0, 2]], [[2, 0, 4, 0], [0, 1, 0, 2], [0, 1, 2, 0]], [[4, 0, 5, 0], [0, 4, 4, 0], [0, 3, 4, 0]], [[3, 0, 8, 0], [2, 0, 5, 0], [0, 2, 4, 0]], [[0, 4, 0, 5], [2, 0, 8, 0], [1, 0, 0, 2]], [[0, 4, 6, 0], [2, 0, 0, 5], [0, 2, 1, 0]], [[0, 5, 0, 9], [3, 0, 0, 7], [3, 0, 0, 6]], [[0, 5, 0, 6], [2, 0, 4, 0], [2, 0, 0, 2]], [[0, 2, 0, 3], [0, 1, 7, 0], [0, 1, 0, 2]], [[0, 4, 0, 9], [0, 4, 0, 6], [1, 0, 0, 6]], [[1, 0, 0, 7], [0, 2, 8, 0], [0, 2, 0, 3]], [[0, 2, 0, 6], [4, 0, 0, 5], [0, 2, 0, 5]], [[0, 3, 0, 9], [2, 0, 4, 0], [0, 2, 0, 9]], [[0, 5, 8, 0], [1, 0, 8, 0], [1, 0, 7, 0]], [[0, 2, 0, 8], [2, 0, 0, 8], [0, 2, 0, 6]], [[0, 5, 0, 6], [0, 4, 1, 0], [3, 0, 0, 1]], [[0, 4, 8, 0], [5, 0, 6, 0], [0, 2, 5, 0]], [[4, 0, 6, 0], [0, 2, 0, 4], [4, 0, 2, 0]], [[5, 0, 8, 0], [0, 2, 8, 0], [0, 2, 7, 0]], [[4, 0, 0, 4], [4, 0, 0, 3], [0, 2, 4, 0]], [[0, 5, 0, 9], [1, 0, 0, 8], [1, 0, 0, 6]], [[4, 0, 5, 0], [3, 0, 3, 0], [2, 0, 2, 0]], [[0, 3, 0, 8], [0, 3, 0, 7], [0, 2, 0, 7]], [[0, 2, 9, 0], [0, 2, 8, 0], [1, 0, 9, 0]], [[0, 5, 9, 0], [4, 0, 0, 4], [3, 0, 9, 0]], [[5, 0, 0, 5], [0, 4, 0, 4], [3, 0, 0, 3]], [[3, 0, 0, 7], [3, 0, 0, 6], [3, 0, 5, 0]], [[0, 4, 8, 0], [3, 0, 0, 4], [3, 0, 8, 0]], [[0, 3, 0, 6], [3, 0, 7, 0], [0, 3, 0, 1]], [[0, 2, 0, 6], [2, 0, 0, 2], [0, 2, 0, 2]], [[3, 0, 7, 0], [3, 0, 0, 6], [1, 0, 2, 0]], [[0, 4, 7, 0], [1, 0, 5, 0], [1, 0, 4, 0]], [[3, 0, 5, 0], [0, 4, 4, 0], [0, 4, 3, 0]], [[0, 3, 5, 0], [3, 0, 0, 3], [3, 0, 0, 2]], [[0, 5, 0, 3], [0, 4, 4, 0], [1, 0, 0, 3]], [[0, 5, 8, 0], [0, 3, 7, 0], [5, 0, 5, 0]], [[0, 3, 0, 2], [0, 1, 0, 2], [0, 1, 0, 1]], [[4, 0, 10, 0], [3, 0, 0, 2], [2, 0, 0, 1]], [[0, 5, 10, 0], [1, 0, 9, 0], [0, 4, 0, 3]], [[0, 1, 0, 5], [2, 0, 0, 3], [2, 0, 0, 2]], [[5, 0, 0, 3], [0, 2, 0, 2], [0, 2, 3, 0]], [[3, 0, 0, 7], [3, 0, 0, 5], [0, 2, 1, 0]], [[3, 0, 0, 8], [3, 0, 3, 0], [0, 1, 0, 8]], [[1, 0, 5, 0], [0, 4, 5, 0], [1, 0, 0, 2]], [[0, 5, 7, 0], [1, 0, 5, 0], [1, 0, 4, 0]], [[0, 3, 0, 5], [2, 0, 3, 0], [0, 1, 0, 3]], [[0, 0, 0, 0]]]
